NAME : ftv64.50.2728.tour
COMMENT : Length = 2728
COMMENT : Found by LKH [Keld Helsgaun] Tue Dec 11 00:01:48 2018
TYPE : TOUR
DIMENSION : 66
TOUR_SECTION
1
17
19
29
51
55
27
49
21
47
13
45
43
37
9
41
11
61
15
48
40
6
8
14
18
62
28
22
36
20
44
42
10
12
46
16
2
4
38
66
39
3
5
7
59
35
57
33
31
63
53
25
23
24
50
60
26
64
30
52
54
32
56
34
58
65
-1
EOF
